.Version 8.2.2 of ABINIT

 ABINIT is a project of the Universite Catholique de Louvain,
 Corning Inc. and other collaborators, see ~abinit/doc/developers/contributors.txt .
 Please read ~abinit/doc/users/acknowledgments.html for suggested
 acknowledgments of the ABINIT effort.

.Starting date : Sun 26 Mar 2017.
- ( at 17h20 )

- input  file    -> fbandgraphene.in
- output file    -> fbandgraphene.out
- root for input  files -> fbandgraphene_xi
- root for output files -> fbandgraphene_xo

- inpspheads : Reading pseudopotential header in XML form from C.GGA_PBE-JTH.xml

 DATASET    1 : the unit cell is not primitive
     intxc =       0    ionmov =       0      iscf =      17    lmnmax =       8
     lnmax =       4     mgfft =      60  mpssoang =       2    mqgrid =    4791
     natom =       8  nloc_mem =       2    nspden =       1   nspinor =       1
    nsppol =       1      nsym =      96    n1xccc =       1    ntypat =       1
    occopt =       1   xclevel =       2
-    mband =          17        mffmem =           1         mkmem =           4
       mpw =        4508          nfft =       96000          nkpt =          24
Pmy_natom=         2
 PAW method is used; the additional fine FFT grid is defined by:
   mgfftf=        96    nfftf =    345600
  Rough estimation (10% accuracy) of disk space for files :

 DATASET    2 : the unit cell is not primitive
     intxc =       0    ionmov =       0      iscf =      -2    lmnmax =       8
     lnmax =       4     mgfft =      60  mpssoang =       2    mqgrid =    4791
     natom =       8  nloc_mem =       2    nspden =       1   nspinor =       1
    nsppol =       1      nsym =      96    n1xccc =       1    ntypat =       1
    occopt =       1   xclevel =       2
-    mband =          20        mffmem =           1         mkmem =          62
       mpw =        4502          nfft =       96000          nkpt =         369
Pmy_natom=         2
 PAW method is used; the additional fine FFT grid is defined by:
   mgfftf=        96    nfftf =    345600
  Rough estimation (10% accuracy) of disk space for files :

------------- Echo of variables that govern the present computation ------------
-
- outvars: echo of selected default values
-   iomode0 =  0 , fftalg0 =112 , wfoptalg0 = 10
-
- outvars: echo of global parameters not present in the input file
-  max_nthreads =    0
-
 -outvars: echo values of preprocessed input variables --------
            acell      9.3255114082E+00  9.3255114082E+00  1.5048253987E+01 Bohr
              amu      1.20110000E+01
           diemac      1.20000000E+01
             ecut      1.90000000E+01 Hartree
           enunit1          0
           enunit2          1
-          fftalg         112
           getden1          0
           getden2         -1
           iatsph1       1    2    3    4    5    6    7    8
           iatsph2       1    2    3    4    5    6    7    8
             iscf1         17
             iscf2         -2
           istwfk1       4    0    0    0    0    0    0    5    0    0
                         0    0    0    0    0    0    0    0    0    0
                         0    0    0    0
           istwfk2       2    0    0    0    0    0    0    0    0    0
                         0    0    0    0    0    0    0    0    0    0
                         0    0    0    0    0    0    0    0    0    0
                         0    0    0    0    0    0    0    0    0    0
                         0    0    0    0    0    0    0    0    0    0
                       outvar_i_n : Printing only first  50 k-points.
              ixc     -101130
           jdtset        1    2
              kpt1     0.00000000E+00  0.00000000E+00  5.00000000E-01
                       7.14285714E-02  0.00000000E+00  5.00000000E-01
                       1.42857143E-01  0.00000000E+00  5.00000000E-01
                       2.14285714E-01  0.00000000E+00  5.00000000E-01
                       2.85714286E-01  0.00000000E+00  5.00000000E-01
                       3.57142857E-01  0.00000000E+00  5.00000000E-01
                       4.28571429E-01  0.00000000E+00  5.00000000E-01
                       5.00000000E-01  0.00000000E+00  5.00000000E-01
                       1.42857143E-01  7.14285714E-02  5.00000000E-01
                       2.14285714E-01  7.14285714E-02  5.00000000E-01
                       2.85714286E-01  7.14285714E-02  5.00000000E-01
                       3.57142857E-01  7.14285714E-02  5.00000000E-01
                       4.28571429E-01  7.14285714E-02  5.00000000E-01
                       5.00000000E-01  7.14285714E-02  5.00000000E-01
                       2.85714286E-01  1.42857143E-01  5.00000000E-01
                       3.57142857E-01  1.42857143E-01  5.00000000E-01
                       4.28571429E-01  1.42857143E-01  5.00000000E-01
                       5.00000000E-01  1.42857143E-01  5.00000000E-01
                      -4.28571429E-01  1.42857143E-01  5.00000000E-01
                       4.28571429E-01  2.14285714E-01  5.00000000E-01
                       5.00000000E-01  2.14285714E-01  5.00000000E-01
                      -4.28571429E-01  2.14285714E-01  5.00000000E-01
                      -4.28571429E-01  2.85714286E-01  5.00000000E-01
                      -3.57142857E-01  2.85714286E-01  5.00000000E-01
              kpt2     0.00000000E+00  0.00000000E+00  0.00000000E+00
                       2.89855072E-03  5.79710145E-03  0.00000000E+00
                       5.79710145E-03  1.15942029E-02  0.00000000E+00
                       8.69565217E-03  1.73913043E-02  0.00000000E+00
                       1.15942029E-02  2.31884058E-02  0.00000000E+00
                       1.44927536E-02  2.89855072E-02  0.00000000E+00
                       1.73913043E-02  3.47826087E-02  0.00000000E+00
                       2.02898551E-02  4.05797101E-02  0.00000000E+00
                       2.31884058E-02  4.63768116E-02  0.00000000E+00
                       2.60869565E-02  5.21739130E-02  0.00000000E+00
                       2.89855072E-02  5.79710145E-02  0.00000000E+00
                       3.18840580E-02  6.37681159E-02  0.00000000E+00
                       3.47826087E-02  6.95652174E-02  0.00000000E+00
                       3.76811594E-02  7.53623188E-02  0.00000000E+00
                       4.05797101E-02  8.11594203E-02  0.00000000E+00
                       4.34782609E-02  8.69565217E-02  0.00000000E+00
                       4.63768116E-02  9.27536232E-02  0.00000000E+00
                       4.92753623E-02  9.85507246E-02  0.00000000E+00
                       5.21739130E-02  1.04347826E-01  0.00000000E+00
                       5.50724638E-02  1.10144928E-01  0.00000000E+00
                       5.79710145E-02  1.15942029E-01  0.00000000E+00
                       6.08695652E-02  1.21739130E-01  0.00000000E+00
                       6.37681159E-02  1.27536232E-01  0.00000000E+00
                       6.66666667E-02  1.33333333E-01  0.00000000E+00
                       6.95652174E-02  1.39130435E-01  0.00000000E+00
                       7.24637681E-02  1.44927536E-01  0.00000000E+00
                       7.53623188E-02  1.50724638E-01  0.00000000E+00
                       7.82608696E-02  1.56521739E-01  0.00000000E+00
                       8.11594203E-02  1.62318841E-01  0.00000000E+00
                       8.40579710E-02  1.68115942E-01  0.00000000E+00
                       8.69565217E-02  1.73913043E-01  0.00000000E+00
                       8.98550725E-02  1.79710145E-01  0.00000000E+00
                       9.27536232E-02  1.85507246E-01  0.00000000E+00
                       9.56521739E-02  1.91304348E-01  0.00000000E+00
                       9.85507246E-02  1.97101449E-01  0.00000000E+00
                       1.01449275E-01  2.02898551E-01  0.00000000E+00
                       1.04347826E-01  2.08695652E-01  0.00000000E+00
                       1.07246377E-01  2.14492754E-01  0.00000000E+00
                       1.10144928E-01  2.20289855E-01  0.00000000E+00
                       1.13043478E-01  2.26086957E-01  0.00000000E+00
                       1.15942029E-01  2.31884058E-01  0.00000000E+00
                       1.18840580E-01  2.37681159E-01  0.00000000E+00
                       1.21739130E-01  2.43478261E-01  0.00000000E+00
                       1.24637681E-01  2.49275362E-01  0.00000000E+00
                       1.27536232E-01  2.55072464E-01  0.00000000E+00
                       1.30434783E-01  2.60869565E-01  0.00000000E+00
                       1.33333333E-01  2.66666667E-01  0.00000000E+00
                       1.36231884E-01  2.72463768E-01  0.00000000E+00
                       1.39130435E-01  2.78260870E-01  0.00000000E+00
                       1.42028986E-01  2.84057971E-01  0.00000000E+00
                       outvar_i_n : Printing only first  50 k-points.
           kptopt1          1
           kptopt2         -3
         kptrlatt       14    0    0      0   14    0      0    0    1
          kptrlen1     1.30557160E+02
          kptrlen2     3.00000000E+01
P           mkmem1          4
P           mkmem2         62
            natom           8
           natsph1       8
           natsph2       8
            nband1         17
            nband2         20
           nbdbuf1          0
           nbdbuf2          2
           ndtset           2
            ngfft          40      40      60
          ngfftdg          60      60      96
             nkpt1         24
             nkpt2        369
            nstep         100
             nsym          96
           ntypat           1
              occ      2.000000  2.000000  2.000000  2.000000  2.000000  2.000000
                       2.000000  2.000000  2.000000  2.000000  2.000000  2.000000
                       2.000000  2.000000  2.000000  2.000000  0.000000
        pawecutdg      5.00000000E+01 Hartree
        pawfatbnd           1
          pawovlp     -1.0000000000E+00
            rprim      5.0000000000E-01  8.6602540500E-01  0.0000000000E+00
                      -5.0000000000E-01  8.6602540500E-01  0.0000000000E+00
                       0.0000000000E+00  0.0000000000E+00  1.0000000000E+00
           shiftk1     0.00000000E+00  0.00000000E+00  5.00000000E-01
           shiftk2     5.00000000E-01  5.00000000E-01  5.00000000E-01
           symrel      1  0  0   0  1  0   0  0  1       1  0  0   0  1  0   0  0  1
                       1  0  0   0  1  0   0  0  1       1  0  0   0  1  0   0  0  1
                      -1  0  0   0 -1  0   0  0 -1      -1  0  0   0 -1  0   0  0 -1
                      -1  0  0   0 -1  0   0  0 -1      -1  0  0   0 -1  0   0  0 -1
                      -1  1  0   0  1  0   0  0  1      -1  1  0   0  1  0   0  0  1
                      -1  1  0   0  1  0   0  0  1      -1  1  0   0  1  0   0  0  1
                       1 -1  0   0 -1  0   0  0 -1       1 -1  0   0 -1  0   0  0 -1
                       1 -1  0   0 -1  0   0  0 -1       1 -1  0   0 -1  0   0  0 -1
                       0  1  0  -1  1  0   0  0  1       0  1  0  -1  1  0   0  0  1
[...]
                       1.44927536E-02  2.89855072E-02  0.00000000E+00
                       1.73913043E-02  3.47826087E-02  0.00000000E+00
                       2.02898551E-02  4.05797101E-02  0.00000000E+00
                       2.31884058E-02  4.63768116E-02  0.00000000E+00
                       2.60869565E-02  5.21739130E-02  0.00000000E+00
                       2.89855072E-02  5.79710145E-02  0.00000000E+00
                       3.18840580E-02  6.37681159E-02  0.00000000E+00
                       3.47826087E-02  6.95652174E-02  0.00000000E+00
                       3.76811594E-02  7.53623188E-02  0.00000000E+00
                       4.05797101E-02  8.11594203E-02  0.00000000E+00
                       4.34782609E-02  8.69565217E-02  0.00000000E+00
                       4.63768116E-02  9.27536232E-02  0.00000000E+00
                       4.92753623E-02  9.85507246E-02  0.00000000E+00
                       5.21739130E-02  1.04347826E-01  0.00000000E+00
                       5.50724638E-02  1.10144928E-01  0.00000000E+00
                       5.79710145E-02  1.15942029E-01  0.00000000E+00
                       6.08695652E-02  1.21739130E-01  0.00000000E+00
                       6.37681159E-02  1.27536232E-01  0.00000000E+00
                       6.66666667E-02  1.33333333E-01  0.00000000E+00
                       6.95652174E-02  1.39130435E-01  0.00000000E+00
                       7.24637681E-02  1.44927536E-01  0.00000000E+00
                       7.53623188E-02  1.50724638E-01  0.00000000E+00
                       7.82608696E-02  1.56521739E-01  0.00000000E+00
                       8.11594203E-02  1.62318841E-01  0.00000000E+00
                       8.40579710E-02  1.68115942E-01  0.00000000E+00
                       8.69565217E-02  1.73913043E-01  0.00000000E+00
                       8.98550725E-02  1.79710145E-01  0.00000000E+00
                       9.27536232E-02  1.85507246E-01  0.00000000E+00
                       9.56521739E-02  1.91304348E-01  0.00000000E+00
                       9.85507246E-02  1.97101449E-01  0.00000000E+00
                       1.01449275E-01  2.02898551E-01  0.00000000E+00
                       1.04347826E-01  2.08695652E-01  0.00000000E+00
                       1.07246377E-01  2.14492754E-01  0.00000000E+00
                       1.10144928E-01  2.20289855E-01  0.00000000E+00
                       1.13043478E-01  2.26086957E-01  0.00000000E+00
                       1.15942029E-01  2.31884058E-01  0.00000000E+00
                       1.18840580E-01  2.37681159E-01  0.00000000E+00
                       1.21739130E-01  2.43478261E-01  0.00000000E+00
                       1.24637681E-01  2.49275362E-01  0.00000000E+00
                       1.27536232E-01  2.55072464E-01  0.00000000E+00
                       1.30434783E-01  2.60869565E-01  0.00000000E+00
                       1.33333333E-01  2.66666667E-01  0.00000000E+00
                       1.36231884E-01  2.72463768E-01  0.00000000E+00
                       1.39130435E-01  2.78260870E-01  0.00000000E+00
                       1.42028986E-01  2.84057971E-01  0.00000000E+00
                       outvar_i_n : Printing only first  50 k-points.
           kptopt1          1
           kptopt2         -3
         kptrlatt       14    0    0      0   14    0      0    0    1
          kptrlen1     1.30557160E+02
          kptrlen2     3.00000000E+01
P           mkmem1          4
P           mkmem2         62
            natom           8
           natsph1       8
           natsph2       8
            nband1         17
            nband2         20
           nbdbuf1          0
           nbdbuf2          2
           ndtset           2
            ngfft          40      40      60
          ngfftdg          60      60      96
             nkpt1         24
             nkpt2        369
            nstep         100
             nsym          96
           ntypat           1
              occ      2.000000  2.000000  2.000000  2.000000  2.000000  2.000000
                       2.000000  2.000000  2.000000  2.000000  2.000000  2.000000
                       2.000000  2.000000  2.000000  2.000000  0.000000
        pawecutdg      5.00000000E+01 Hartree
        pawfatbnd           1
          pawovlp     -1.0000000000E+00
            rprim      5.0000000000E-01  8.6602540500E-01  0.0000000000E+00
                      -5.0000000000E-01  8.6602540500E-01  0.0000000000E+00
                       0.0000000000E+00  0.0000000000E+00  1.0000000000E+00
           shiftk1     0.00000000E+00  0.00000000E+00  5.00000000E-01
           shiftk2     5.00000000E-01  5.00000000E-01  5.00000000E-01
           strten1     3.4581494486E-06  3.4581469916E-06 -5.0545254082E-06
                       0.0000000000E+00  0.0000000000E+00  0.0000000000E+00
           symrel      1  0  0   0  1  0   0  0  1       1  0  0   0  1  0   0  0  1
                       1  0  0   0  1  0   0  0  1       1  0  0   0  1  0   0  0  1
                      -1  0  0   0 -1  0   0  0 -1      -1  0  0   0 -1  0   0  0 -1
                      -1  0  0   0 -1  0   0  0 -1      -1  0  0   0 -1  0   0  0 -1
                      -1  1  0   0  1  0   0  0  1      -1  1  0   0  1  0   0  0  1
                      -1  1  0   0  1  0   0  0  1      -1  1  0   0  1  0   0  0  1
                       1 -1  0   0 -1  0   0  0 -1       1 -1  0   0 -1  0   0  0 -1
                       1 -1  0   0 -1  0   0  0 -1       1 -1  0   0 -1  0   0  0 -1
                       0  1  0  -1  1  0   0  0  1       0  1  0  -1  1  0   0  0  1
                       0  1  0  -1  1  0   0  0  1       0  1  0  -1  1  0   0  0  1
                       0 -1  0   1 -1  0   0  0 -1       0 -1  0   1 -1  0   0  0 -1
                       0 -1  0   1 -1  0   0  0 -1       0 -1  0   1 -1  0   0  0 -1
                      -1  0  0  -1  1  0   0  0  1      -1  0  0  -1  1  0   0  0  1
                      -1  0  0  -1  1  0   0  0  1      -1  0  0  -1  1  0   0  0  1
                       1  0  0   1 -1  0   0  0 -1       1  0  0   1 -1  0   0  0 -1
                       1  0  0   1 -1  0   0  0 -1       1  0  0   1 -1  0   0  0 -1
                      -1  1  0  -1  0  0   0  0  1      -1  1  0  -1  0  0   0  0  1
                      -1  1  0  -1  0  0   0  0  1      -1  1  0  -1  0  0   0  0  1
                       1 -1  0   1  0  0   0  0 -1       1 -1  0   1  0  0   0  0 -1
                       1 -1  0   1  0  0   0  0 -1       1 -1  0   1  0  0   0  0 -1
                       0 -1  0  -1  0  0   0  0  1       0 -1  0  -1  0  0   0  0  1
                       0 -1  0  -1  0  0   0  0  1       0 -1  0  -1  0  0   0  0  1
                       0  1  0   1  0  0   0  0 -1       0  1  0   1  0  0   0  0 -1
                       0  1  0   1  0  0   0  0 -1       0  1  0   1  0  0   0  0 -1
                      -1  0  0   0 -1  0   0  0  1      -1  0  0   0 -1  0   0  0  1
                      -1  0  0   0 -1  0   0  0  1      -1  0  0   0 -1  0   0  0  1
                       1  0  0   0  1  0   0  0 -1       1  0  0   0  1  0   0  0 -1
                       1  0  0   0  1  0   0  0 -1       1  0  0   0  1  0   0  0 -1
                       1 -1  0   0 -1  0   0  0  1       1 -1  0   0 -1  0   0  0  1
                       1 -1  0   0 -1  0   0  0  1       1 -1  0   0 -1  0   0  0  1
                      -1  1  0   0  1  0   0  0 -1      -1  1  0   0  1  0   0  0 -1
                      -1  1  0   0  1  0   0  0 -1      -1  1  0   0  1  0   0  0 -1
                       0 -1  0   1 -1  0   0  0  1       0 -1  0   1 -1  0   0  0  1
                       0 -1  0   1 -1  0   0  0  1       0 -1  0   1 -1  0   0  0  1
                       0  1  0  -1  1  0   0  0 -1       0  1  0  -1  1  0   0  0 -1
                       0  1  0  -1  1  0   0  0 -1       0  1  0  -1  1  0   0  0 -1
                       1  0  0   1 -1  0   0  0  1       1  0  0   1 -1  0   0  0  1
                       1  0  0   1 -1  0   0  0  1       1  0  0   1 -1  0   0  0  1
                      -1  0  0  -1  1  0   0  0 -1      -1  0  0  -1  1  0   0  0 -1
                      -1  0  0  -1  1  0   0  0 -1      -1  0  0  -1  1  0   0  0 -1
                       1 -1  0   1  0  0   0  0  1       1 -1  0   1  0  0   0  0  1
                       1 -1  0   1  0  0   0  0  1       1 -1  0   1  0  0   0  0  1
                      -1  1  0  -1  0  0   0  0 -1      -1  1  0  -1  0  0   0  0 -1
                      -1  1  0  -1  0  0   0  0 -1      -1  1  0  -1  0  0   0  0 -1
                       0  1  0   1  0  0   0  0  1       0  1  0   1  0  0   0  0  1
                       0  1  0   1  0  0   0  0  1       0  1  0   1  0  0   0  0  1
                       0 -1  0  -1  0  0   0  0 -1       0 -1  0  -1  0  0   0  0 -1
                       0 -1  0  -1  0  0   0  0 -1       0 -1  0  -1  0  0   0  0 -1
            tnons      0.0000000  0.0000000  0.0000000     0.5000000 -0.0000000  0.0000000
                      -0.0000000  0.5000000  0.0000000     0.5000000  0.5000000  0.0000000
                       0.5000000  0.5000000 -0.0000000     0.0000000  0.5000000 -0.0000000
                       0.5000000  0.0000000 -0.0000000     0.0000000  0.0000000 -0.0000000
                       0.5000000  0.0000000  0.0000000     0.0000000 -0.0000000  0.0000000
                       0.5000000  0.5000000  0.0000000     0.0000000  0.5000000  0.0000000
                       0.0000000  0.5000000 -0.0000000     0.5000000  0.5000000 -0.0000000
                      -0.0000000  0.0000000 -0.0000000     0.5000000  0.0000000 -0.0000000
                       0.5000000  0.0000000  0.0000000     0.0000000 -0.0000000  0.0000000
                       0.5000000  0.5000000  0.0000000     0.0000000  0.5000000  0.0000000
                       0.0000000  0.5000000 -0.0000000     0.5000000  0.5000000 -0.0000000
                      -0.0000000  0.0000000 -0.0000000     0.5000000  0.0000000 -0.0000000
                       0.5000000  0.0000000  0.0000000     0.0000000 -0.0000000  0.0000000
                       0.5000000  0.5000000  0.0000000     0.0000000  0.5000000  0.0000000
                       0.0000000  0.5000000 -0.0000000     0.5000000  0.5000000 -0.0000000
                      -0.0000000  0.0000000 -0.0000000     0.5000000  0.0000000 -0.0000000
                       0.5000000  0.0000000  0.0000000     0.0000000 -0.0000000  0.0000000
                       0.5000000  0.5000000  0.0000000     0.0000000  0.5000000  0.0000000
                       0.0000000  0.5000000 -0.0000000     0.5000000  0.5000000 -0.0000000
                      -0.0000000  0.0000000 -0.0000000     0.5000000  0.0000000 -0.0000000
                       0.5000000  0.5000000  0.0000000     0.0000000  0.5000000  0.0000000
                       0.5000000  0.0000000  0.0000000     0.0000000  0.0000000  0.0000000
                       0.0000000  0.0000000 -0.0000000     0.5000000 -0.0000000 -0.0000000
                      -0.0000000  0.5000000 -0.0000000     0.5000000  0.5000000 -0.0000000
                       0.5000000  0.5000000  0.0000000     0.0000000  0.5000000  0.0000000
                       0.5000000  0.0000000  0.0000000     0.0000000  0.0000000  0.0000000
                       0.0000000  0.0000000 -0.0000000     0.5000000 -0.0000000 -0.0000000
                      -0.0000000  0.5000000 -0.0000000     0.5000000  0.5000000 -0.0000000
                       0.0000000  0.5000000  0.0000000     0.5000000  0.5000000  0.0000000
                      -0.0000000  0.0000000  0.0000000     0.5000000  0.0000000  0.0000000
                       0.5000000  0.0000000 -0.0000000     0.0000000 -0.0000000 -0.0000000
                       0.5000000  0.5000000 -0.0000000     0.0000000  0.5000000 -0.0000000
                       0.0000000  0.5000000  0.0000000     0.5000000  0.5000000  0.0000000
                      -0.0000000  0.0000000  0.0000000     0.5000000  0.0000000  0.0000000
                       0.5000000  0.0000000 -0.0000000     0.0000000 -0.0000000 -0.0000000
                       0.5000000  0.5000000 -0.0000000     0.0000000  0.5000000 -0.0000000
                       0.0000000  0.5000000  0.0000000     0.5000000  0.5000000  0.0000000
                      -0.0000000  0.0000000  0.0000000     0.5000000  0.0000000  0.0000000
                       0.5000000  0.0000000 -0.0000000     0.0000000 -0.0000000 -0.0000000
                       0.5000000  0.5000000 -0.0000000     0.0000000  0.5000000 -0.0000000
                       0.0000000  0.5000000  0.0000000     0.5000000  0.5000000  0.0000000
                      -0.0000000  0.0000000  0.0000000     0.5000000  0.0000000  0.0000000
                       0.5000000  0.0000000 -0.0000000     0.0000000 -0.0000000 -0.0000000
                       0.5000000  0.5000000 -0.0000000     0.0000000  0.5000000 -0.0000000
                       0.0000000  0.0000000  0.0000000     0.5000000 -0.0000000  0.0000000
                      -0.0000000  0.5000000  0.0000000     0.5000000  0.5000000  0.0000000
                       0.5000000  0.5000000 -0.0000000     0.0000000  0.5000000 -0.0000000
                       0.5000000  0.0000000 -0.0000000     0.0000000  0.0000000 -0.0000000
           toldfe1     1.00000000E-10 Hartree
           toldfe2     0.00000000E+00 Hartree
           tolwfr1     0.00000000E+00
           tolwfr2     1.00000000E-12
            typat      1  1  1  1  1  1  1  1
           useylm           1
              wtk1       0.00510    0.03061    0.03061    0.03061    0.03061    0.03061
                         0.03061    0.01531    0.03061    0.06122    0.06122    0.06122
                         0.06122    0.06122    0.03061    0.06122    0.06122    0.06122
                         0.03061    0.03061    0.06122    0.06122    0.03061    0.03061
              wtk2       1.00000    1.00000    1.00000    1.00000    1.00000    1.00000
                         1.00000    1.00000    1.00000    1.00000    1.00000    1.00000
                         1.00000    1.00000    1.00000    1.00000    1.00000    1.00000
                         1.00000    1.00000    1.00000    1.00000    1.00000    1.00000
                         1.00000    1.00000    1.00000    1.00000    1.00000    1.00000
                         1.00000    1.00000    1.00000    1.00000    1.00000    1.00000
                         1.00000    1.00000    1.00000    1.00000    1.00000    1.00000
                         1.00000    1.00000    1.00000    1.00000    1.00000    1.00000
                         1.00000    1.00000
                       outvars : Printing only first  50 k-points.
           xangst      1.9501179939E-17  1.4245679403E+00  1.6345913345E-47
                      -1.0124453182E-16  2.8491358805E+00  0.0000000000E+00
                       1.2337120239E+00  3.5614198506E+00  3.2691826689E-47
                       1.2337120239E+00  4.9859877908E+00  2.1794551126E-47
                      -1.2337120239E+00  3.5614198506E+00  4.3589102253E-47
                      -1.2337120239E+00  4.9859877908E+00  2.3610763720E-47
                      -2.6348290894E-16  5.6982717609E+00  2.9059401502E-47
                       1.2114237725E-15  7.1228397012E+00  7.2648503754E-48
            xcart      3.6851889352E-17  2.6920432648E+00  3.0889299613E-47
                      -1.9132443759E-16  5.3840865295E+00  0.0000000000E+00
                       2.3313778520E+00  6.7301081619E+00  6.1778599227E-47
                       2.3313778521E+00  9.4221514266E+00  4.1185732818E-47
                      -2.3313778520E+00  6.7301081619E+00  8.2371465636E-47
                      -2.3313778521E+00  9.4221514266E+00  4.4617877219E-47
                      -4.9791053859E-16  1.0768173059E+01  5.4914310424E-47
                       2.2892591609E-15  1.3460216324E+01  1.3728577606E-47
             xred      1.6666666667E-01  1.6666666667E-01  2.0526832974E-48
                       3.3333333334E-01  3.3333333334E-01  0.0000000000E+00
                       6.6666666667E-01  1.6666666667E-01  4.1053665947E-48
                       8.3333333334E-01  3.3333333334E-01  2.7369110631E-48
                       1.6666666667E-01  6.6666666667E-01  5.4738221263E-48
                       3.3333333334E-01  8.3333333334E-01  2.9649869851E-48
                       6.6666666667E-01  6.6666666667E-01  3.6492147508E-48
                       8.3333333334E-01  8.3333333334E-01  9.1230368771E-49
            znucl        6.00000

- Timing analysis has been suppressed with timopt=0

 Suggested references for the acknowledgment of ABINIT usage.

 Calculation completed.
.Delivered   2 WARNINGs and   0 COMMENTs to log file.